166	32	4	61	
18	23	13	12

0	0	0	0	0	0	3	1	2	3
1	8	4	0	4	9	3	6	17	20
2	7	4	4	0	7	3	4	8	11
3	0	6	0	4	8	3	5	7	28
4	0	0	4	0	9	3	10	14	15
5	3	8	0	1	3	3	9	15	17
6	3	0	0	0	6	3	9	10	11
7	6	0	0	1	6	3	13	17	21
8	0	1	0	0	7	3	9	18	23
9	0	0	8	0	3	3	13	21	22
10	9	6	6	0	6	3	13	23	24
11	0	0	0	9	4	3	12	16	18
12	0	10	5	9	10	3	15	19	23
13	3	0	0	3	4	2	16	19
14	0	0	1	0	9	3	16	20	25
15	8	8	0	6	6	3	21	26	29
16	1	0	0	0	2	1	26
17	0	1	1	0	1	3	18	22	30
18	0	1	0	0	8	1	24
19	7	9	0	0	7	1	25
20	0	9	7	3	9	3	22	27	28
21	0	3	6	0	1	1	27
22	7	8	6	0	6	1	24
23	1	10	4	0	1	2	25	28
24	0	10	0	4	8	1	29
25	8	0	0	0	1	2	26	29
26	4	0	0	9	5	1	27
27	0	5	0	1	1	1	30
28	3	0	4	0	5	1	31
29	10	4	0	0	5	1	31
30	9	4	9	0	9	1	31
31	0	0	0	0	0	0
